Instance name : SB_bar-n100-6
Authors : 
Date : 
Reference 
Solution
Route 1 : 29 31 81 79 37 1 48 87 51 7 57 98 9 8 58 59 36 33 83 35 14 85 64 39 89 86 
Route 2 : 38 34 25 40 88 84 19 75 90 69 23 73 
Route 3 : 4 20 54 32 30 82 18 70 47 97 80 68 5 17 2 67 11 45 95 55 10 52 61 60 24 50 27 77 100 74 
Route 4 : 22 43 72 16 93 41 66 12 91 62 21 71 6 42 28 92 44 56 13 94 26 63 76 49 78 3 99 53 15 46 65 96 
